(declare-fun var0 () String)
(declare-fun var1 () String)
(declare-fun var2 () String)
(declare-fun var3 () String)
(declare-fun var4 () String)
(declare-fun var5 () String)
(declare-fun var6 () String)
(declare-fun var7 () String)
(declare-fun var8 () String)
(declare-fun var9 () String)
(declare-fun var10 () String)
(declare-fun var11 () String)
(declare-fun var12 () String)
(declare-fun var13 () String)
(declare-fun var14 () String)
(declare-fun var15 () String)
(declare-fun var16 () String)
(declare-fun var17 () String)
(declare-fun var18 () String)
(declare-fun var19 () String)
(declare-fun var20 () String)
(declare-fun var21 () String)
(declare-fun var22 () String)
(declare-fun var23 () String)
(declare-fun var24 () String)
(declare-fun var25 () String)
(declare-fun var26 () String)
(declare-fun var27 () String)
(declare-fun var28 () String)
(declare-fun var29 () String)
(declare-fun var30 () String)
(declare-fun var31 () String)
(declare-fun var32 () String)
(declare-fun var33 () String)
(declare-fun var34 () String)
(declare-fun var35 () String)
(declare-fun var36 () String)
(declare-fun var37 () String)
(declare-fun var38 () String)
(declare-fun var39 () String)
(declare-fun var40 () String)
(declare-fun var41 () String)
(declare-fun var42 () String)
(declare-fun var43 () String)
(declare-fun var44 () String)
(declare-fun var45 () String)
(declare-fun var46 () String)
(declare-fun var47 () String)
(declare-fun var48 () String)
(declare-fun var49 () String)
(declare-fun var50 () String)
(declare-fun var51 () String)
(declare-fun var52 () String)
(declare-fun var53 () String)
(declare-fun var54 () String)
(declare-fun var55 () String)
(declare-fun var56 () String)
(declare-fun var57 () String)
(declare-fun var58 () String)
(declare-fun var59 () String)
(declare-fun var60 () String)
(assert (= var0 (Concat var1 var2)))
(assert (= var2 (Concat var3 var4)))
(assert (= var4 (Concat var5 var6)))
(assert (= var6 (Concat var7 var8)))
(assert (= var8 (Concat var9 var10)))
(assert (= var10 (Concat var11 var12)))
(assert (= var12 (Concat var13 var14)))
(assert (= var14 (Concat var15 var16)))
(assert (= var16 (Concat var17 var18)))
(assert (= var18 (Concat var19 var20)))
(assert (= var20 (Concat var21 var22)))
(assert (= var22 (Concat var23 var24)))
(assert (= var24 (Concat var25 var26)))
(assert (= var26 (Concat var27 var28)))
(assert (= var28 (Concat var29 var30)))
(assert (= var30 (Concat var31 var32)))
(assert (= var32 (Concat var33 var34)))
(assert (= var34 (Concat var35 var36)))
(assert (= var36 (Concat var37 var38)))
(assert (= var38 (Concat var39 var40)))
(assert (= var40 (Concat var41 var42)))
(assert (= var42 (Concat var43 var44)))
(assert (= var44 (Concat var45 var46)))
(assert (= var46 (Concat var47 var48)))
(assert (= var48 (Concat var49 var50)))
(assert (= var50 (Concat var51 var52)))
(assert (= var52 (Concat var53 var54)))
(assert (= var54 (Concat var55 var56)))
(assert (= var56 (Concat var57 var58)))
(assert (= var58 (Concat var59 var60)))
(assert (= var0 "solution"))
(assert (= "a" (CharAt var35 765)))
(assert (= "!" (CharAt var26 620)))
(assert (= "9" (CharAt var58 68)))
(assert (= "d" (CharAt var6 881)))
(assert (= "=" (CharAt var43 73)))
(assert (= "y" (CharAt var37 854)))
(assert (= "U" (CharAt var8 661)))
(assert (= "S" (CharAt var57 787)))
(assert (= "+" (CharAt var20 864)))
(assert (= "\"" (CharAt var52 608)))
(assert (= "W" (CharAt var57 891)))
(assert (= ">" (CharAt var12 410)))
(assert (= "1" (CharAt var41 607)))
(assert (= "+" (CharAt var23 928)))
(assert (= "{" (CharAt var8 5)))
(assert (= "U" (CharAt var19 32)))
(assert (= "=" (CharAt var12 869)))
(assert (= "$" (CharAt var30 393)))
(assert (= "P" (CharAt var54 604)))
(assert (= "_" (CharAt var27 76)))
(assert (= "3" (CharAt var59 785)))
(assert (= "?" (CharAt var23 409)))
(assert (= "`" (CharAt var25 801)))
(assert (= "m" (CharAt var38 370)))
(assert (= "H" (CharAt var7 683)))
(assert (= "{" (CharAt var19 275)))
(assert (= "?" (CharAt var8 128)))
(assert (= "Q" (CharAt var60 342)))
(assert (= "_" (CharAt var6 885)))
(assert (= "N" (CharAt var53 719)))
(assert (= "m" (CharAt var0 845)))
(assert (= "d" (CharAt var45 739)))
(assert (= "*" (CharAt var50 587)))
(assert (= "q" (CharAt var1 35)))
(assert (= "2" (CharAt var27 536)))
(assert (= "J" (CharAt var21 582)))
(assert (= "/" (CharAt var52 523)))
(assert (= "8" (CharAt var20 57)))
(assert (= "." (CharAt var32 337)))
(assert (= "^" (CharAt var16 727)))
(assert (= "n" (CharAt var50 139)))
(assert (= "i" (CharAt var28 735)))
(assert (= "m" (CharAt var2 648)))
(assert (= "N" (CharAt var25 296)))
(assert (= "{" (CharAt var15 213)))
(assert (= "f" (CharAt var52 326)))
(assert (= "n" (CharAt var42 118)))
(assert (= "/" (CharAt var44 597)))
(assert (= "[" (CharAt var20 577)))
(assert (= "_" (CharAt var33 22)))
(assert (= "W" (CharAt var34 809)))
(assert (= "-" (CharAt var13 619)))
(assert (= "^" (CharAt var46 992)))
(assert (= "p" (CharAt var35 384)))
(assert (= "@" (CharAt var1 167)))
(assert (= "G" (CharAt var45 386)))
(assert (= "a" (CharAt var23 340)))
(assert (= "J" (CharAt var28 323)))
(assert (= "=" (CharAt var5 448)))
(assert (= "@" (CharAt var47 463)))
(assert (= "F" (CharAt var58 627)))
(assert (= "2" (CharAt var35 95)))
(assert (= "%" (CharAt var34 698)))
(assert (= "Q" (CharAt var55 520)))
(assert (= "W" (CharAt var29 469)))
(assert (= "^" (CharAt var35 705)))
(assert (= "#" (CharAt var33 55)))
(assert (= "a" (CharAt var2 278)))
(assert (= "^" (CharAt var47 844)))
(assert (= "f" (CharAt var25 100)))
(assert (= "\\" (CharAt var35 915)))
(assert (= ";" (CharAt var17 723)))
(assert (= "O" (CharAt var58 84)))
(assert (= "U" (CharAt var43 87)))
(assert (= "<" (CharAt var16 191)))
(assert (= "E" (CharAt var49 337)))
(assert (= "N" (CharAt var29 666)))
(assert (= "L" (CharAt var22 689)))
(assert (= "I" (CharAt var26 655)))
(assert (= "c" (CharAt var42 384)))
(assert (= "Y" (CharAt var57 196)))
(assert (= "X" (CharAt var27 221)))
(assert (= "d" (CharAt var5 407)))
(assert (= "R" (CharAt var60 971)))
(assert (= "n" (CharAt var8 113)))
(assert (= "_" (CharAt var19 466)))
(assert (= "*" (CharAt var55 459)))
(assert (= "j" (CharAt var27 317)))
(assert (= "D" (CharAt var52 491)))
(assert (= "\\" (CharAt var26 886)))
(assert (= "f" (CharAt var43 558)))
(assert (= "$" (CharAt var7 761)))
(assert (= "d" (CharAt var17 286)))
(assert (= "X" (CharAt var18 58)))
(assert (= "O" (CharAt var19 881)))
(assert (= "y" (CharAt var21 211)))
(assert (= "s" (CharAt var39 19)))
(assert (= "b" (CharAt var56 526)))
(assert (= "F" (CharAt var16 617)))
(assert (= "&" (CharAt var37 100)))
(assert (= "c" (CharAt var55 774)))
(assert (= "Z" (CharAt var27 327)))
(assert (= "H" (CharAt var37 10)))
(assert (= "?" (CharAt var42 601)))
(assert (= "3" (CharAt var25 2)))
(assert (= "h" (CharAt var2 570)))
(assert (= "R" (CharAt var59 151)))
(assert (= "v" (CharAt var15 547)))
(assert (= "V" (CharAt var45 950)))
(assert (= "9" (CharAt var37 33)))
(assert (= "y" (CharAt var4 520)))
(assert (= "8" (CharAt var9 902)))
(assert (= "J" (CharAt var6 924)))
(assert (= "=" (CharAt var10 745)))
(assert (= "0" (CharAt var5 527)))
(assert (= "Q" (CharAt var3 907)))
(assert (= "y" (CharAt var38 812)))
(assert (= "r" (CharAt var38 77)))
(assert (= "[" (CharAt var4 181)))
(assert (= "y" (CharAt var32 943)))
(assert (= "W" (CharAt var29 655)))
(assert (= "t" (CharAt var16 881)))
(assert (= "?" (CharAt var7 441)))
(assert (= "Y" (CharAt var19 887)))
(assert (= "i" (CharAt var46 249)))
(assert (= "C" (CharAt var9 894)))
(assert (= "D" (CharAt var12 327)))
(assert (= "(" (CharAt var6 901)))
(assert (= "R" (CharAt var42 409)))
(assert (= "b" (CharAt var39 723)))
(assert (= "b" (CharAt var57 906)))
(assert (= "R" (CharAt var10 207)))
(assert (= ":" (CharAt var7 239)))
(assert (= "H" (CharAt var51 272)))
(assert (= ";" (CharAt var6 394)))
(assert (= "4" (CharAt var33 238)))
(assert (= "I" (CharAt var22 667)))
(assert (= "F" (CharAt var18 971)))
(assert (= "e" (CharAt var52 787)))
(assert (= "9" (CharAt var11 809)))
(assert (= "n" (CharAt var17 994)))
(assert (= "$" (CharAt var31 148)))
(assert (= "9" (CharAt var29 390)))
(assert (= "j" (CharAt var20 86)))
(assert (= "!" (CharAt var28 636)))
(assert (= "w" (CharAt var43 350)))
(assert (= "I" (CharAt var50 125)))
(assert (= "7" (CharAt var16 869)))
(assert (= "!" (CharAt var56 815)))
(assert (= "<" (CharAt var59 951)))
(assert (= "B" (CharAt var13 93)))
(assert (= "X" (CharAt var15 550)))
(assert (= "J" (CharAt var19 91)))
(assert (= "T" (CharAt var17 690)))
(assert (= "F" (CharAt var37 146)))
(assert (= "-" (CharAt var38 156)))
(assert (= "/" (CharAt var25 921)))
(assert (= "H" (CharAt var50 817)))
(assert (= "T" (CharAt var22 892)))
(assert (= "p" (CharAt var21 922)))
(assert (= "o" (CharAt var23 595)))
(assert (= "5" (CharAt var59 74)))
(assert (= "\"" (CharAt var14 181)))
(assert (= "u" (CharAt var37 550)))
(assert (= "W" (CharAt var5 327)))
(assert (= "^" (CharAt var29 921)))
(assert (= "u" (CharAt var50 606)))
(assert (= "i" (CharAt var11 865)))
(assert (= "I" (CharAt var15 329)))
(assert (= "|" (CharAt var50 475)))
(assert (= "l" (CharAt var57 90)))
(assert (= "@" (CharAt var27 653)))
(assert (= "M" (CharAt var42 431)))
(assert (= "L" (CharAt var60 472)))
(assert (= "z" (CharAt var56 39)))
(assert (= "*" (CharAt var50 137)))
(assert (= "*" (CharAt var34 11)))
(assert (= "b" (CharAt var38 428)))
(assert (= "{" (CharAt var34 569)))
(assert (= "e" (CharAt var34 858)))
(assert (= "\\" (CharAt var1 943)))
(assert (= "l" (CharAt var35 648)))
(assert (= "v" (CharAt var50 347)))
(assert (= "4" (CharAt var40 352)))
(assert (= "n" (CharAt var48 1)))
(assert (= "." (CharAt var35 880)))
(assert (= "0" (CharAt var37 974)))
(assert (= "L" (CharAt var3 755)))
(assert (= "^" (CharAt var26 47)))
(assert (= "M" (CharAt var29 495)))
(assert (= "4" (CharAt var16 264)))
(assert (= "E" (CharAt var56 661)))
(assert (= "Y" (CharAt var23 807)))
(assert (= "H" (CharAt var34 319)))
(assert (= "/" (CharAt var13 481)))
(assert (= "A" (CharAt var20 754)))
(assert (= "-" (CharAt var57 907)))
(assert (= "7" (CharAt var38 436)))
(assert (= "." (CharAt var33 249)))
(assert (= "/" (CharAt var5 412)))
(assert (= "3" (CharAt var46 689)))
(assert (= "r" (CharAt var19 603)))
(assert (= "G" (CharAt var57 367)))
(assert (= "L" (CharAt var32 281)))
(assert (= "S" (CharAt var58 979)))
(assert (= "W" (CharAt var38 226)))
(assert (= "~" (CharAt var5 57)))
(assert (= "0" (CharAt var13 863)))
(assert (= "m" (CharAt var47 487)))
(assert (= "@" (CharAt var43 341)))
(assert (= "-" (CharAt var35 285)))
(assert (= "[" (CharAt var52 841)))
(assert (= "4" (CharAt var15 388)))
(assert (= "8" (CharAt var38 912)))
(assert (= "L" (CharAt var49 111)))
(assert (= "{" (CharAt var6 529)))
(assert (= "&" (CharAt var49 830)))
(assert (= "A" (CharAt var6 871)))
(assert (= "^" (CharAt var38 171)))
(assert (= "+" (CharAt var18 11)))
(assert (= "~" (CharAt var20 243)))
(assert (= "C" (CharAt var47 245)))
(assert (= "p" (CharAt var34 490)))
(assert (= "F" (CharAt var48 790)))
(assert (= "U" (CharAt var15 868)))
(assert (= ")" (CharAt var41 455)))
(assert (= "3" (CharAt var0 645)))
(assert (= "E" (CharAt var39 86)))
(assert (= "g" (CharAt var17 547)))
(assert (= "7" (CharAt var34 213)))
(assert (= "E" (CharAt var19 325)))
(assert (= "&" (CharAt var47 366)))
(assert (= "," (CharAt var33 905)))
(assert (= "?" (CharAt var45 925)))
(assert (= "!" (CharAt var16 927)))
(assert (= "a" (CharAt var40 911)))
(assert (= "L" (CharAt var22 515)))
(assert (= "*" (CharAt var41 886)))
(assert (= "B" (CharAt var36 15)))
(assert (= "'" (CharAt var20 153)))
(assert (= "e" (CharAt var51 945)))
(assert (= "&" (CharAt var53 971)))
(assert (= "K" (CharAt var21 172)))
(assert (= "f" (CharAt var3 739)))
(assert (= "-" (CharAt var36 647)))
(assert (= "(" (CharAt var44 286)))
(assert (= "|" (CharAt var1 797)))
(assert (= "/" (CharAt var44 420)))
(assert (= "\\" (CharAt var30 82)))
(assert (= "6" (CharAt var45 781)))
(assert (= "P" (CharAt var43 953)))
(assert (= "W" (CharAt var58 995)))
(assert (= "r" (CharAt var7 180)))
(assert (= "." (CharAt var3 443)))
(assert (= "}" (CharAt var39 868)))
(assert (= "N" (CharAt var52 925)))
(assert (= "`" (CharAt var12 304)))
(assert (= "%" (CharAt var12 766)))
(assert (= "d" (CharAt var59 285)))
(assert (= "?" (CharAt var51 195)))
(assert (= "c" (CharAt var30 193)))
(assert (= "U" (CharAt var18 665)))
(assert (= "M" (CharAt var55 971)))
(assert (= "i" (CharAt var10 714)))
(assert (= "Q" (CharAt var60 952)))
(assert (= "f" (CharAt var23 380)))
(assert (= "i" (CharAt var5 730)))
(assert (= "g" (CharAt var47 648)))
(assert (= "b" (CharAt var18 987)))
(assert (= "v" (CharAt var7 981)))
(assert (= "n" (CharAt var42 894)))
(assert (= "\\" (CharAt var17 766)))
(assert (= "C" (CharAt var30 314)))
(assert (= "?" (CharAt var30 25)))
(assert (= "|" (CharAt var48 950)))
(assert (= "o" (CharAt var12 290)))
(assert (= "l" (CharAt var1 607)))
(assert (= "^" (CharAt var45 72)))
(assert (= "G" (CharAt var0 578)))
(assert (= "t" (CharAt var20 684)))
(assert (= "+" (CharAt var19 357)))
(assert (= "o" (CharAt var53 229)))
(assert (= "-" (CharAt var39 437)))
(assert (= "4" (CharAt var51 987)))
(assert (= "?" (CharAt var29 367)))
(assert (= "h" (CharAt var0 824)))
(assert (= "*" (CharAt var33 27)))
(assert (= "A" (CharAt var21 865)))
(assert (= "X" (CharAt var58 170)))
(assert (= "~" (CharAt var32 67)))
(assert (= "K" (CharAt var1 786)))
(assert (= "2" (CharAt var3 888)))
(assert (= ">" (CharAt var46 517)))
(assert (= "O" (CharAt var5 560)))
(assert (= "2" (CharAt var4 102)))
(assert (= "x" (CharAt var27 110)))
(assert (= "r" (CharAt var46 928)))
(assert (= "&" (CharAt var54 163)))
(assert (= "F" (CharAt var15 688)))
(assert (= "'" (CharAt var2 994)))
(assert (= "d" (CharAt var11 886)))
(assert (= ">" (CharAt var18 906)))
(assert (= "}" (CharAt var26 429)))
(assert (= "'" (CharAt var43 430)))
(assert (= "`" (CharAt var57 819)))
(assert (= "8" (CharAt var45 385)))
(assert (= "k" (CharAt var11 830)))
(assert (= "d" (CharAt var8 132)))
(assert (= "T" (CharAt var38 155)))
(assert (= "n" (CharAt var16 930)))
(assert (= "'" (CharAt var23 785)))
(assert (= "<" (CharAt var29 33)))
(assert (= "2" (CharAt var6 403)))
(assert (= "u" (CharAt var37 38)))
(assert (= "w" (CharAt var58 936)))
(assert (= "R" (CharAt var9 983)))
(assert (= "o" (CharAt var56 222)))
(assert (= "+" (CharAt var26 207)))
(assert (= "D" (CharAt var59 674)))
(assert (= "t" (CharAt var12 659)))
(assert (= "G" (CharAt var46 378)))
(assert (= "Q" (CharAt var34 195)))
(assert (= "i" (CharAt var60 378)))
(assert (= "[" (CharAt var51 420)))
(assert (= "m" (CharAt var15 328)))
(assert (= "m" (CharAt var18 385)))
(assert (= ")" (CharAt var33 286)))
(assert (= "K" (CharAt var11 569)))
(assert (= "q" (CharAt var10 875)))
(assert (= "j" (CharAt var8 136)))
(assert (= "l" (CharAt var17 897)))
(assert (= "^" (CharAt var37 173)))
(assert (= "O" (CharAt var33 672)))
(assert (= "6" (CharAt var37 835)))
(assert (= "=" (CharAt var24 907)))
(assert (= "J" (CharAt var42 861)))
(assert (= "K" (CharAt var55 198)))
(assert (= "2" (CharAt var38 325)))
(assert (= "7" (CharAt var48 654)))
(assert (= ">" (CharAt var28 686)))
(assert (= "q" (CharAt var32 195)))
(assert (= "\"" (CharAt var48 263)))
(assert (= "6" (CharAt var3 676)))
(assert (= "." (CharAt var35 372)))
(assert (= "N" (CharAt var24 869)))
(assert (= "C" (CharAt var30 541)))
(assert (= "!" (CharAt var13 183)))
(assert (= "[" (CharAt var34 230)))
(assert (= "Y" (CharAt var39 201)))
(assert (= "4" (CharAt var3 288)))
(assert (= "2" (CharAt var57 59)))
(assert (= "P" (CharAt var33 47)))
(assert (= "d" (CharAt var34 133)))
(assert (= "G" (CharAt var57 203)))
(assert (= "L" (CharAt var57 1000)))
(assert (= "?" (CharAt var8 540)))
(assert (= "[" (CharAt var57 760)))
(assert (= "F" (CharAt var58 835)))
(assert (= "M" (CharAt var50 227)))
(assert (= "Y" (CharAt var26 23)))
(assert (= "2" (CharAt var58 537)))
(assert (= "@" (CharAt var51 424)))
(assert (= "m" (CharAt var58 531)))
(assert (= "3" (CharAt var15 930)))
(assert (= "b" (CharAt var50 536)))
(assert (= ":" (CharAt var14 278)))
(assert (= "/" (CharAt var60 835)))
(assert (= ">" (CharAt var30 26)))
(assert (= "Z" (CharAt var16 897)))
(assert (= "Q" (CharAt var14 974)))
(assert (= "S" (CharAt var19 606)))
(assert (= "d" (CharAt var37 848)))
(assert (= "6" (CharAt var2 880)))
(assert (= "j" (CharAt var31 993)))
(assert (= "j" (CharAt var34 824)))
(assert (= "x" (CharAt var55 996)))
(assert (= "." (CharAt var56 591)))
(assert (= "&" (CharAt var16 527)))
(assert (= "C" (CharAt var52 375)))
(assert (= "B" (CharAt var46 879)))
(assert (= "+" (CharAt var35 445)))
(assert (= "@" (CharAt var58 134)))
(assert (= "~" (CharAt var53 417)))
(assert (= "C" (CharAt var9 249)))
(assert (= "5" (CharAt var52 8)))
(assert (= "J" (CharAt var54 101)))
(assert (= "m" (CharAt var12 331)))
(assert (= "Y" (CharAt var3 944)))
(assert (= "L" (CharAt var45 381)))
(assert (= "i" (CharAt var6 773)))
(assert (= "<" (CharAt var34 330)))
(assert (= "f" (CharAt var47 517)))
(assert (= "F" (CharAt var22 584)))
(assert (= "O" (CharAt var52 986)))
(assert (= "[" (CharAt var9 44)))
(assert (= ">" (CharAt var49 971)))
(assert (= ">" (CharAt var35 396)))
(assert (= "1" (CharAt var6 464)))
(assert (= "~" (CharAt var50 47)))
(assert (= "X" (CharAt var52 126)))
(assert (= "$" (CharAt var43 54)))
(assert (= "m" (CharAt var26 586)))
(assert (= "-" (CharAt var44 804)))
(assert (= "e" (CharAt var50 932)))
(assert (= "k" (CharAt var24 548)))
(assert (= "c" (CharAt var46 390)))
(assert (= ")" (CharAt var0 262)))
(assert (= "%" (CharAt var42 853)))
(assert (= "9" (CharAt var41 391)))
(assert (= "a" (CharAt var49 400)))
(assert (= "m" (CharAt var58 72)))
(assert (= "." (CharAt var60 497)))
(assert (= "," (CharAt var5 218)))
(assert (= "X" (CharAt var20 204)))
(assert (= "{" (CharAt var35 567)))
(assert (= "5" (CharAt var40 647)))
(assert (= ";" (CharAt var17 730)))
(assert (= "Y" (CharAt var29 693)))
(assert (= "Q" (CharAt var41 439)))
(assert (= "q" (CharAt var37 886)))
(assert (= "M" (CharAt var33 323)))
(assert (= "-" (CharAt var2 125)))
(assert (= "w" (CharAt var42 491)))
(assert (= "p" (CharAt var25 430)))
(assert (= "o" (CharAt var54 769)))
(assert (= "3" (CharAt var53 645)))
(assert (= "E" (CharAt var55 620)))
(assert (= "Q" (CharAt var3 121)))
(assert (= "#" (CharAt var21 77)))
(assert (= "(" (CharAt var23 534)))
(assert (= "4" (CharAt var35 936)))
(assert (= "+" (CharAt var29 300)))
(assert (= "M" (CharAt var56 107)))
(assert (= "y" (CharAt var39 67)))
(assert (= "E" (CharAt var21 197)))
(assert (= "a" (CharAt var25 322)))
(assert (= "R" (CharAt var28 725)))
(assert (= "Q" (CharAt var28 763)))
(assert (= "l" (CharAt var46 126)))
(assert (= "s" (CharAt var17 962)))
(assert (= "q" (CharAt var22 364)))
(assert (= "%" (CharAt var36 438)))
(assert (= "]" (CharAt var37 28)))
(assert (= "X" (CharAt var21 202)))
(assert (= "P" (CharAt var18 391)))
(assert (= "c" (CharAt var46 185)))
(assert (= "f" (CharAt var44 209)))
(assert (= "b" (CharAt var51 490)))
(assert (= "Q" (CharAt var23 754)))
(assert (= "B" (CharAt var13 246)))
(assert (= "h" (CharAt var38 956)))
(assert (= "-" (CharAt var8 323)))
(assert (= "d" (CharAt var32 710)))
(assert (= "n" (CharAt var15 815)))
(assert (= "g" (CharAt var14 359)))
(assert (= "<" (CharAt var59 553)))
(assert (= "," (CharAt var21 73)))
(assert (= "g" (CharAt var8 633)))
(assert (= "U" (CharAt var4 907)))
(assert (= "g" (CharAt var27 711)))
(assert (= "!" (CharAt var41 954)))
(assert (= "<" (CharAt var18 539)))
(assert (= "<" (CharAt var52 130)))
(assert (= ":" (CharAt var30 216)))
(assert (= "T" (CharAt var32 947)))
(assert (= "&" (CharAt var22 687)))
(assert (= "\\" (CharAt var31 669)))
(assert (= "d" (CharAt var36 784)))
(assert (= "a" (CharAt var44 562)))
(assert (= "F" (CharAt var17 222)))
(assert (= "&" (CharAt var3 176)))
(assert (= "$" (CharAt var52 338)))
(assert (= "m" (CharAt var49 402)))
(assert (= "." (CharAt var57 585)))
(assert (= "V" (CharAt var0 227)))
(assert (= "~" (CharAt var12 665)))
(assert (= "Y" (CharAt var33 460)))
(assert (= "D" (CharAt var0 283)))
(assert (= "W" (CharAt var55 153)))
(assert (= "|" (CharAt var9 783)))
(assert (= "U" (CharAt var29 26)))
(assert (= "x" (CharAt var35 142)))
(assert (= "L" (CharAt var36 539)))
(assert (= "1" (CharAt var18 94)))
(assert (= "(" (CharAt var18 527)))
(assert (= "V" (CharAt var59 509)))
(assert (= "P" (CharAt var39 775)))
(assert (= "~" (CharAt var47 552)))
(assert (= "6" (CharAt var2 625)))
(assert (= "Q" (CharAt var1 988)))
(assert (= "T" (CharAt var2 364)))
(assert (= "j" (CharAt var21 397)))
(assert (= "}" (CharAt var53 342)))
(assert (= "J" (CharAt var4 995)))
(assert (= "Y" (CharAt var13 472)))
(assert (= "7" (CharAt var49 220)))
(assert (= "(" (CharAt var41 333)))
(assert (= "I" (CharAt var38 127)))
(assert (= "J" (CharAt var58 422)))
(assert (= "8" (CharAt var60 84)))
(assert (= "&" (CharAt var22 717)))
(assert (= "O" (CharAt var3 394)))
(assert (= "]" (CharAt var12 241)))
(assert (= "$" (CharAt var19 105)))
(assert (= "Y" (CharAt var12 69)))
(assert (= "c" (CharAt var11 774)))
(assert (= "P" (CharAt var57 57)))
(assert (= "E" (CharAt var13 96)))
(assert (= ";" (CharAt var12 289)))
(assert (= ":" (CharAt var19 106)))
(assert (= "/" (CharAt var5 917)))
(assert (= "}" (CharAt var60 494)))
(assert (= ">" (CharAt var22 19)))
(assert (= "P" (CharAt var49 992)))
(assert (= "f" (CharAt var33 502)))
(assert (= "L" (CharAt var26 87)))
(assert (= "r" (CharAt var60 310)))
(assert (= "l" (CharAt var24 764)))
(assert (= "O" (CharAt var44 14)))
(assert (= "t" (CharAt var48 825)))
(assert (= "+" (CharAt var20 966)))
(assert (= "H" (CharAt var16 671)))
(assert (= "$" (CharAt var16 155)))
(assert (= "z" (CharAt var11 531)))
(assert (= "4" (CharAt var1 216)))
(assert (= "v" (CharAt var10 171)))
(assert (= "u" (CharAt var32 880)))
(assert (= "!" (CharAt var57 643)))
(assert (= "f" (CharAt var26 167)))
(assert (= "S" (CharAt var45 298)))
(assert (= "v" (CharAt var3 281)))
(assert (= ")" (CharAt var18 819)))
(assert (= "A" (CharAt var21 593)))
(assert (= "<" (CharAt var55 297)))
(assert (= "S" (CharAt var59 458)))
(assert (= "e" (CharAt var22 571)))
(assert (= "6" (CharAt var40 414)))
(assert (= "S" (CharAt var36 397)))
(assert (= "]" (CharAt var39 954)))
(assert (= "L" (CharAt var40 225)))
(assert (= "2" (CharAt var59 732)))
(assert (= "7" (CharAt var45 762)))
(assert (= "x" (CharAt var53 625)))
(assert (= ";" (CharAt var37 813)))
(assert (= "I" (CharAt var26 764)))
(assert (= "]" (CharAt var46 181)))
(assert (= "j" (CharAt var26 416)))
(assert (= "2" (CharAt var31 277)))
(assert (= ")" (CharAt var29 559)))
(assert (= "}" (CharAt var30 95)))
(assert (= "E" (CharAt var60 970)))
(assert (= ";" (CharAt var51 235)))
(assert (= "c" (CharAt var32 740)))
(assert (= "u" (CharAt var12 609)))
(assert (= "X" (CharAt var44 421)))
(assert (= "X" (CharAt var11 979)))
(assert (= "7" (CharAt var30 530)))
(assert (= "\\" (CharAt var39 885)))
(assert (= "R" (CharAt var57 360)))
(assert (= "\\" (CharAt var51 463)))
(assert (= "d" (CharAt var20 310)))
(assert (= "/" (CharAt var45 932)))
(assert (= "[" (CharAt var57 374)))
(assert (= "o" (CharAt var52 153)))
(assert (= "R" (CharAt var1 801)))
(assert (= "}" (CharAt var57 654)))
(assert (= "@" (CharAt var21 524)))
(assert (= ")" (CharAt var27 496)))
(assert (= "]" (CharAt var21 104)))
(assert (= "w" (CharAt var14 668)))
(assert (= "4" (CharAt var56 584)))
(assert (= ">" (CharAt var25 571)))
(assert (= "_" (CharAt var35 387)))
(assert (= ";" (CharAt var46 918)))
(assert (= "u" (CharAt var15 355)))
(assert (= "E" (CharAt var0 865)))
(assert (= "}" (CharAt var51 618)))
(assert (= "7" (CharAt var4 765)))
(assert (= "k" (CharAt var19 760)))
(assert (= "9" (CharAt var28 246)))
(assert (= "i" (CharAt var34 785)))
(assert (= "r" (CharAt var56 538)))
(assert (= "p" (CharAt var56 598)))
(assert (= "f" (CharAt var0 661)))
(assert (= "z" (CharAt var50 297)))
(assert (= "q" (CharAt var45 602)))
(assert (= "0" (CharAt var49 281)))
(assert (= "f" (CharAt var55 820)))
(assert (= "j" (CharAt var9 744)))
(assert (= "\\" (CharAt var38 313)))
(assert (= "U" (CharAt var55 451)))
(assert (= "{" (CharAt var14 584)))
(assert (= "1" (CharAt var46 315)))
(assert (= "=" (CharAt var44 223)))
(assert (= "n" (CharAt var38 819)))
(assert (= "{" (CharAt var49 501)))
(assert (= "9" (CharAt var31 776)))
(assert (= "W" (CharAt var30 815)))
(assert (= "Y" (CharAt var57 293)))
(assert (= "*" (CharAt var48 866)))
(assert (= "K" (CharAt var34 985)))
(assert (= "!" (CharAt var31 839)))
(assert (= "-" (CharAt var6 161)))
(assert (= ">" (CharAt var34 678)))
(assert (= "^" (CharAt var20 820)))
(assert (= "@" (CharAt var32 451)))
(assert (= "\"" (CharAt var57 883)))
(assert (= "[" (CharAt var48 350)))
(assert (= ")" (CharAt var48 776)))
(assert (= ")" (CharAt var4 676)))
(assert (= "A" (CharAt var22 214)))
(assert (= "S" (CharAt var36 569)))
(assert (= "f" (CharAt var22 23)))
(assert (= "W" (CharAt var28 17)))
(assert (= "^" (CharAt var36 4)))
(assert (= "e" (CharAt var20 588)))
(assert (= "\\" (CharAt var17 38)))
(assert (= "Y" (CharAt var25 382)))
(assert (= "~" (CharAt var31 649)))
(assert (= "Q" (CharAt var18 17)))
(assert (= "e" (CharAt var44 867)))
(assert (= "+" (CharAt var58 844)))
(assert (= "J" (CharAt var54 164)))
(assert (= "N" (CharAt var18 246)))
(assert (= "d" (CharAt var30 35)))
(assert (= "{" (CharAt var15 899)))
(assert (= "`" (CharAt var5 582)))
(assert (= "_" (CharAt var18 815)))
(assert (= "x" (CharAt var50 827)))
(assert (= "C" (CharAt var8 907)))
(assert (= "!" (CharAt var39 548)))
(assert (= "I" (CharAt var35 566)))
(assert (= "J" (CharAt var60 602)))
(assert (= "0" (CharAt var4 439)))
(assert (= "z" (CharAt var55 516)))
(assert (= ">" (CharAt var36 242)))
(assert (= "D" (CharAt var47 595)))
(assert (= "-" (CharAt var52 281)))
(assert (= "J" (CharAt var47 984)))
(assert (= "$" (CharAt var5 975)))
(assert (= "P" (CharAt var22 979)))
(assert (= "8" (CharAt var21 756)))
(assert (= "&" (CharAt var60 595)))
(assert (= "1" (CharAt var59 90)))
(assert (= "c" (CharAt var27 81)))
(assert (= "8" (CharAt var14 554)))
(assert (= "H" (CharAt var0 104)))
(assert (= "D" (CharAt var9 358)))
(assert (= "e" (CharAt var56 55)))
(assert (= "r" (CharAt var14 525)))
(assert (= "W" (CharAt var23 452)))
(assert (= "T" (CharAt var44 666)))
(assert (= "H" (CharAt var54 350)))
(assert (= "H" (CharAt var58 376)))
(assert (= "L" (CharAt var30 376)))
(assert (= "H" (CharAt var56 359)))
(assert (= "@" (CharAt var48 284)))
(assert (= "D" (CharAt var55 137)))
(assert (= "\"" (CharAt var55 401)))
(assert (= "i" (CharAt var47 370)))
(assert (= "r" (CharAt var31 280)))
(assert (= "n" (CharAt var52 830)))
(assert (= ":" (CharAt var42 805)))
(assert (= "P" (CharAt var25 823)))
(assert (= "E" (CharAt var48 86)))
(assert (= "T" (CharAt var21 688)))
(assert (= "/" (CharAt var29 583)))
(assert (= "L" (CharAt var54 12)))
(assert (= "D" (CharAt var57 762)))
(assert (= "]" (CharAt var32 116)))
(assert (= "C" (CharAt var55 613)))
(assert (= "L" (CharAt var31 166)))
(assert (= "z" (CharAt var13 544)))
(assert (= "," (CharAt var18 900)))
(assert (= "C" (CharAt var46 806)))
(assert (= "f" (CharAt var37 852)))
(assert (= "5" (CharAt var4 794)))
(assert (= "{" (CharAt var26 280)))
(assert (= "!" (CharAt var20 366)))
(assert (= ">" (CharAt var57 197)))
(assert (= "#" (CharAt var23 847)))
(check-sat)